IPOPT.OUT
This is Ipopt version 3.10.0, running with linear solver ma27.

Number of nonzeros in equality constraint Jacobian...:        0
Number of nonzeros in inequality constraint Jacobian.:        6
Number of nonzeros in Lagrangian Hessian.............:        0

Total number of variables............................:        2
                     variables with only lower bounds:        2
                variables with lower and upper bounds:        0
                     variables with only upper bounds:        0
Total number of equality constraints.................:        0
Total number of inequality constraints...............:        3
        inequality constraints with only lower bounds:        0
   inequality constraints with lower and upper bounds:        0
        inequality constraints with only upper bounds:        3

iter    objective    inf_pr   inf_du lg(mu)  ||d||  lg(rg) alpha_du alpha_pr  ls
   0  1.0050025e+00 0.00e+00 5.71e-01   0.0 0.00e+00    -  0.00e+00 0.00e+00   0
   1  3.4266457e-01 0.00e+00 2.49e-01  -6.1 4.38e-01    -  1.00e+00 1.00e+00f  1
   2  1.9322181e-01 1.24e-02 2.46e-01  -7.0 5.21e-01    -  1.00e+00 1.00e+00h  1
   3  1.9555158e-01 0.00e+00 1.97e-02  -2.5 2.48e-01    -  1.00e+00 1.00e+00h  1
   4  1.9454372e-01 0.00e+00 1.96e-02  -4.1 3.43e-02    -  1.00e+00 9.98e-01h  1
   5  1.9455627e-01 0.00e+00 5.70e-02  -4.4 1.88e-02    -  1.00e+00 1.00e+00h  1
   6  1.9437286e-01 4.73e-03 2.71e-02  -6.1 1.67e-02    -  1.00e+00 1.00e+00h  1
   7  1.9473853e-01 0.00e+00 2.28e-02  -6.6 2.10e-02    -  1.00e+00 5.00e-01h  2
   8  1.9424257e-01 0.00e+00 3.16e-02  -7.7 3.91e-02    -  1.00e+00 1.00e+00h  1
   9  1.9111084e-01 1.93e-02 1.41e-02  -8.3 1.47e-01    -  1.00e+00 1.00e+00h  1
iter    objective    inf_pr   inf_du lg(mu)  ||d||  lg(rg) alpha_du alpha_pr  ls
  10  1.9396627e-01 3.12e-03 2.89e-02  -8.5 1.32e-01    -  1.00e+00 1.00e+00h  1
  11  1.9396161e-01 1.65e-03 2.69e-02  -9.9 9.47e-03    -  1.00e+00 3.12e-02h  6

Number of Iterations....: 11

                                   (scaled)                 (unscaled)
Objective...............:   1.9396161048181987e-01    1.9396161048181987e-01
Dual infeasibility......:   2.6867810208317591e-02    2.6867810208317591e-02
Constraint violation....:   1.6459653840529779e-03    1.6459653840529779e-03
Complementarity.........:   2.7993252643109618e-09    2.7993252643109618e-09
Overall NLP error.......:   2.6867810208317591e-02    2.6867810208317591e-02


Number of objective function evaluations             = 21
Number of objective gradient evaluations             = 12
Number of equality constraint evaluations            = 0
Number of inequality constraint evaluations          = 21
Number of equality constraint Jacobian evaluations   = 0
Number of inequality constraint Jacobian evaluations = 12
Number of Lagrangian Hessian evaluations             = 0
Total CPU secs in IPOPT (w/o function evaluations)   =      0.023
Total CPU secs in NLP function evaluations           =    106.727

EXIT: Stopping optimization at current point as requested by user.
